(set-option :print-success false)
(set-logic QF_UF)
(declare-sort x67 0)
(declare-sort x122 0)
(declare-fun x77 () x122)
(declare-fun x145 () x122)
(declare-fun x7 (x122 x122) x122)
(declare-fun x151 () x122)
(declare-fun x73 () x122)
(declare-fun x87 () x122)
(assert (not (and (= x87 (x7 x151 x151)) (and (and (= x145 (x7 x151 x87)) (= (x7 x87 x87) x77)) (= (x7 x145 x87) x73)))))
(assert (not (and (= x73 (x7 x145 x145)) (and (and (= (x7 x145 x73) x77) (= x151 (x7 x73 x73))) (= (x7 x77 x73) x87)))))
(assert (not (and (and (= x87 (x7 x151 x77)) (and (= x151 (x7 x73 x77)) (= x145 (x7 x77 x77)))) (= (x7 x73 x73) x77))))
(assert (not (and (= (x7 x77 x77) x73) (and (= x145 (x7 x151 x73)) (and (= x151 (x7 x77 x73)) (= (x7 x73 x73) x87))))))
(assert (not (and (and (and (= (x7 x77 x87) x73) (= x151 (x7 x87 x87))) (= (x7 x73 x87) x145)) (= x87 (x7 x77 x77)))))
(assert (or (or (or (or (and (not (= x87 (x7 (x7 x87 x77) x77))) (and (not (= x151 (x7 (x7 x151 x77) x77))) (and (and (not (= (x7 (x7 x145 x77) x77) x145)) (not (= (x7 (x7 x77 x77) x77) x77))) (not (= x73 (x7 (x7 x73 x77) x77)))))) (and (and (not (= x151 (x7 (x7 x151 x145) x145))) (and (and (not (= x77 (x7 (x7 x77 x145) x145))) (not (= (x7 (x7 x145 x145) x145) x145))) (not (= (x7 (x7 x73 x145) x145) x73)))) (not (= (x7 (x7 x87 x145) x145) x87)))) (and (not (= x87 (x7 (x7 x87 x73) x73))) (and (and (and (not (= (x7 (x7 x77 x73) x73) x77)) (not (= (x7 (x7 x145 x73) x73) x145))) (not (= x73 (x7 (x7 x73 x73) x73)))) (not (= x151 (x7 (x7 x151 x73) x73)))))) (and (and (and (and (not (= (x7 (x7 x77 x151) x151) x77)) (not (= x145 (x7 (x7 x145 x151) x151)))) (not (= (x7 (x7 x73 x151) x151) x73))) (not (= (x7 (x7 x151 x151) x151) x151))) (not (= (x7 (x7 x87 x151) x151) x87)))) (and (and (and (not (= (x7 (x7 x73 x87) x87) x73)) (and (not (= x145 (x7 (x7 x145 x87) x87))) (not (= x77 (x7 (x7 x77 x87) x87))))) (not (= x151 (x7 (x7 x151 x87) x87)))) (not (= (x7 (x7 x87 x87) x87) x87)))))
(assert (not (and (= x77 (x7 x87 x87)) (and (= (x7 x145 x77) x73) (and (= x145 (x7 x87 x77)) (= (x7 x77 x77) x151))))))
(assert (not (and (and (= x145 (x7 x73 x77)) (and (= x73 (x7 x87 x77)) (= (x7 x77 x77) x151))) (= x77 (x7 x87 x87)))))
(assert (not (and (and (= (x7 x77 x87) x73) (and (= x151 (x7 x87 x87)) (= x77 (x7 x145 x87)))) (= x87 (x7 x145 x145)))))
(assert (not (and (= x77 (x7 x87 x87)) (and (and (= (x7 x87 x77) x151) (= (x7 x77 x77) x145)) (= x73 (x7 x151 x77))))))
(assert (not (and (and (and (= (x7 x87 x87) x151) (= x145 (x7 x77 x87))) (= x73 (x7 x145 x87))) (= (x7 x77 x77) x87))))
(assert (not (and (and (and (= x87 (x7 x73 x77)) (= (x7 x77 x77) x145)) (= (x7 x87 x77) x151)) (= x77 (x7 x73 x73)))))
(assert (not (and (and (= (x7 x77 x73) x87) (and (= x145 (x7 x73 x73)) (= x77 (x7 x151 x73)))) (= (x7 x151 x151) x73))))
(assert (not (and (and (and (= (x7 x87 x87) x145) (= x77 (x7 x73 x87))) (= (x7 x77 x87) x151)) (= x87 (x7 x73 x73)))))
(assert (not (and (= x145 (x7 x77 x77)) (and (= (x7 x151 x145) x73) (and (= (x7 x145 x145) x87) (= (x7 x77 x145) x151))))))
(assert (not (and (and (= x77 (x7 x145 x151)) (and (= x145 (x7 x73 x151)) (= (x7 x151 x151) x87))) (= (x7 x73 x73) x151))))
(assert (not (and (and (= x73 (x7 x145 x151)) (and (= x145 (x7 x77 x151)) (= x87 (x7 x151 x151)))) (= (x7 x77 x77) x151))))
(assert (and (not (= x87 x151)) (and (and (not (= x73 x151)) (and (not (= x145 x87)) (and (and (not (= x145 x73)) (and (and (not (= x77 x151)) (and (not (= x77 x73)) (not (= x77 x145)))) (not (= x77 x87)))) (not (= x151 x145))))) (not (= x87 x73)))))
(assert (not (and (and (and (= (x7 x73 x73) x151) (= (x7 x77 x73) x145)) (= x87 (x7 x145 x73))) (= (x7 x77 x77) x73))))
(assert (not (and (= (x7 x151 x151) x73) (and (and (= (x7 x73 x73) x77) (= x145 (x7 x151 x73))) (= (x7 x145 x73) x87)))))
(assert (not (and (= x77 (x7 x87 x87)) (and (and (= x145 (x7 x77 x77)) (= x73 (x7 x87 x77))) (= (x7 x73 x77) x151)))))
(assert (not (and (and (and (= (x7 x73 x73) x77) (= (x7 x145 x73) x151)) (= x87 (x7 x151 x73))) (= x73 (x7 x145 x145)))))
(assert (not (and (= (x7 x77 x77) x87) (and (= x145 (x7 x151 x87)) (and (= x151 (x7 x77 x87)) (= x73 (x7 x87 x87)))))))
(assert (not (and (= (x7 x151 x151) x145) (and (= x87 (x7 x77 x145)) (and (= (x7 x145 x145) x73) (= x77 (x7 x151 x145)))))))
(assert (not (and (and (and (= x77 (x7 x145 x145)) (= x151 (x7 x73 x145))) (= (x7 x151 x145) x87)) (= (x7 x73 x73) x145))))
(assert (not (and (= x77 (x7 x87 x87)) (and (= x151 (x7 x145 x77)) (and (= x145 (x7 x87 x77)) (= x73 (x7 x77 x77)))))))
(assert (not (and (and (= x73 (x7 x151 x77)) (and (= x151 (x7 x145 x77)) (= x87 (x7 x77 x77)))) (= (x7 x145 x145) x77))))
(assert (not (and (and (= (x7 x77 x87) x73) (and (= (x7 x151 x87) x77) (= x145 (x7 x87 x87)))) (= x87 (x7 x151 x151)))))
(assert (and (not (= (x7 x87 x87) x87)) (and (not (= (x7 x151 x151) x151)) (and (not (= (x7 x73 x73) x73)) (and (not (= x145 (x7 x145 x145))) (not (= (x7 x77 x77) x77)))))))
(assert (not (and (= x151 (x7 x77 x77)) (and (= (x7 x145 x151) x87) (and (= x73 (x7 x151 x151)) (= x145 (x7 x77 x151)))))))
(assert (and (and (and (and (or (or (or (or (= (x7 x145 (x7 x145 x77)) x77) (= x145 (x7 x145 (x7 x145 x145)))) (= (x7 x145 (x7 x145 x73)) x73)) (= (x7 x145 (x7 x145 x151)) x151)) (= x87 (x7 x145 (x7 x145 x87)))) (or (or (or (or (= (x7 x77 (x7 x77 x77)) x77) (= x145 (x7 x77 (x7 x77 x145)))) (= x73 (x7 x77 (x7 x77 x73)))) (= x151 (x7 x77 (x7 x77 x151)))) (= (x7 x77 (x7 x77 x87)) x87))) (or (or (or (= (x7 x73 (x7 x73 x73)) x73) (or (= (x7 x73 (x7 x73 x77)) x77) (= x145 (x7 x73 (x7 x73 x145))))) (= (x7 x73 (x7 x73 x151)) x151)) (= (x7 x73 (x7 x73 x87)) x87))) (or (or (= x151 (x7 x151 (x7 x151 x151))) (or (= (x7 x151 (x7 x151 x73)) x73) (or (= (x7 x151 (x7 x151 x145)) x145) (= x77 (x7 x151 (x7 x151 x77)))))) (= (x7 x151 (x7 x151 x87)) x87))) (or (or (or (= x73 (x7 x87 (x7 x87 x73))) (or (= x77 (x7 x87 (x7 x87 x77))) (= (x7 x87 (x7 x87 x145)) x145))) (= (x7 x87 (x7 x87 x151)) x151)) (= (x7 x87 (x7 x87 x87)) x87))))
(assert (not (and (and (and (= x73 (x7 x145 x145)) (= x151 (x7 x77 x145))) (= x87 (x7 x151 x145))) (= x145 (x7 x77 x77)))))
(assert (not (and (= (x7 x151 x151) x73) (and (and (= x87 (x7 x73 x73)) (= (x7 x151 x73) x77)) (= (x7 x77 x73) x145)))))
(assert (not (and (and (and (= (x7 x87 x151) x77) (= (x7 x151 x151) x145)) (= x73 (x7 x77 x151))) (= x151 (x7 x87 x87)))))
(assert (not (and (= x77 (x7 x151 x151)) (and (and (= x87 (x7 x151 x77)) (= x145 (x7 x77 x77))) (= x73 (x7 x87 x77))))))
(assert (not (and (= (x7 x145 x145) x87) (and (= x77 (x7 x73 x87)) (and (= (x7 x145 x87) x73) (= (x7 x87 x87) x151))))))
(assert (not (and (= (x7 x77 x77) x145) (and (and (= x87 (x7 x77 x145)) (= x73 (x7 x145 x145))) (= x151 (x7 x87 x145))))))
(assert (not (and (= x151 (x7 x73 x73)) (and (and (= (x7 x73 x151) x87) (= x77 (x7 x151 x151))) (= x145 (x7 x87 x151))))))
(assert (not (and (and (= x151 (x7 x145 x73)) (and (= x145 (x7 x77 x73)) (= (x7 x73 x73) x87))) (= x73 (x7 x77 x77)))))
(assert (not (and (= x73 (x7 x87 x87)) (and (= (x7 x151 x73) x77) (and (= x151 (x7 x87 x73)) (= (x7 x73 x73) x145))))))
(assert (not (and (and (and (= x151 (x7 x77 x77)) (= (x7 x145 x77) x87)) (= x73 (x7 x87 x77))) (= x77 (x7 x145 x145)))))
(assert (not (and (= (x7 x145 x145) x87) (and (= x77 (x7 x151 x87)) (and (= x151 (x7 x145 x87)) (= (x7 x87 x87) x73))))))
(assert (not (and (= x151 (x7 x87 x87)) (and (= (x7 x73 x151) x77) (and (= (x7 x87 x151) x73) (= x145 (x7 x151 x151)))))))
(assert (not (and (= x73 (x7 x145 x145)) (and (and (= (x7 x145 x73) x77) (= (x7 x73 x73) x87)) (= x151 (x7 x77 x73))))))
(assert (not (and (= x145 (x7 x77 x77)) (and (= x87 (x7 x73 x145)) (and (= (x7 x145 x145) x151) (= (x7 x77 x145) x73))))))
(assert (or (and (and (not (= x87 (x7 x151 (x7 x87 x151)))) (and (and (not (= x87 (x7 x145 (x7 x87 x145)))) (not (= (x7 x77 (x7 x87 x77)) x87))) (not (= (x7 x73 (x7 x87 x73)) x87)))) (not (= x87 (x7 x87 (x7 x87 x87))))) (or (and (and (and (and (not (= x151 (x7 x145 (x7 x151 x145)))) (not (= (x7 x77 (x7 x151 x77)) x151))) (not (= x151 (x7 x73 (x7 x151 x73))))) (not (= (x7 x151 (x7 x151 x151)) x151))) (not (= x151 (x7 x87 (x7 x151 x87))))) (or (or (and (not (= x77 (x7 x87 (x7 x77 x87)))) (and (and (not (= (x7 x73 (x7 x77 x73)) x77)) (and (not (= (x7 x145 (x7 x77 x145)) x77)) (not (= (x7 x77 (x7 x77 x77)) x77)))) (not (= x77 (x7 x151 (x7 x77 x151)))))) (and (and (and (not (= (x7 x73 (x7 x145 x73)) x145)) (and (not (= x145 (x7 x77 (x7 x145 x77)))) (not (= (x7 x145 (x7 x145 x145)) x145)))) (not (= x145 (x7 x151 (x7 x145 x151))))) (not (= (x7 x87 (x7 x145 x87)) x145)))) (and (not (= (x7 x87 (x7 x73 x87)) x73)) (and (and (and (not (= x73 (x7 x77 (x7 x73 x77)))) (not (= x73 (x7 x145 (x7 x73 x145))))) (not (= (x7 x73 (x7 x73 x73)) x73))) (not (= x73 (x7 x151 (x7 x73 x151))))))))))
(assert (not (and (= x145 (x7 x73 x73)) (and (= (x7 x87 x145) x77) (and (= (x7 x73 x145) x87) (= x151 (x7 x145 x145)))))))
(assert (not (and (and (= x77 (x7 x87 x73)) (and (= (x7 x151 x73) x87) (= x145 (x7 x73 x73)))) (= x73 (x7 x151 x151)))))
(assert (not (and (and (and (= (x7 x77 x77) x145) (= x73 (x7 x151 x77))) (= (x7 x73 x77) x87)) (= (x7 x151 x151) x77))))
(assert (not (and (and (and (= (x7 x77 x151) x73) (= x87 (x7 x151 x151))) (= (x7 x73 x151) x145)) (= (x7 x77 x77) x151))))
(assert (not (and (= x77 (x7 x145 x145)) (and (and (= (x7 x77 x77) x73) (= (x7 x145 x77) x151)) (= (x7 x151 x77) x87)))))
(assert (not (and (and (and (= (x7 x145 x145) x151) (= x87 (x7 x77 x145))) (= x73 (x7 x87 x145))) (= x145 (x7 x77 x77)))))
(assert (let ((x27 (x7 x73 x145)) (x1 (x7 x151 x73)) (x11 (x7 x145 x73)) (x120 (x7 x151 x145)) (x80 (x7 x151 x87)) (x17 (x7 x77 x87)) (x79 (x7 x145 x87)) (x123 (x7 x73 x73)) (x105 (x7 x87 x77)) (x155 (x7 x73 x77)) (x109 (x7 x77 x151)) (x33 (x7 x73 x151)) (x117 (x7 x151 x151)) (x43 (x7 x87 x145)) (x132 (x7 x151 x77)) (x101 (x7 x87 x151)) (x88 (x7 x73 x87)) (x57 (x7 x77 x77)) (x41 (x7 x145 x77)) (x52 (x7 x145 x151)) (x78 (x7 x87 x73)) (x126 (x7 x77 x73)) (x61 (x7 x145 x145)) (x91 (x7 x77 x145)) (x29 (x7 x87 x87))) (and (and (and (and (and (and (and (and (or (or (or (= x57 x73) (or (= x57 x145) (= x57 x77))) (= x151 x57)) (= x57 x87)) (or (= x91 x87) (or (= x151 x91) (or (= x91 x73) (or (= x91 x77) (= x145 x91)))))) (or (or (or (= x126 x73) (or (= x126 x145) (= x77 x126))) (= x151 x126)) (= x87 x126))) (or (or (or (= x73 x109) (or (= x109 x77) (= x109 x145))) (= x109 x151)) (= x109 x87))) (or (= x17 x87) (or (or (= x73 x17) (or (= x145 x17) (= x77 x17))) (= x17 x151)))) (and (or (= x79 x87) (or (= x151 x79) (or (or (= x79 x145) (= x79 x77)) (= x73 x79)))) (and (and (or (or (= x151 x11) (or (= x73 x11) (or (= x11 x145) (= x77 x11)))) (= x87 x11)) (and (or (= x87 x61) (or (= x151 x61) (or (= x73 x61) (or (= x61 x77) (= x61 x145))))) (or (= x41 x87) (or (= x41 x151) (or (= x41 x73) (or (= x41 x77) (= x145 x41))))))) (or (or (= x151 x52) (or (= x73 x52) (or (= x145 x52) (= x77 x52)))) (= x52 x87))))) (and (or (or (or (= x73 x88) (or (= x77 x88) (= x88 x145))) (= x88 x151)) (= x87 x88)) (and (or (= x33 x87) (or (= x151 x33) (or (= x33 x73) (or (= x145 x33) (= x77 x33))))) (and (or (or (= x151 x123) (or (or (= x123 x145) (= x77 x123)) (= x123 x73))) (= x123 x87)) (and (or (or (or (or (= x27 x145) (= x27 x77)) (= x73 x27)) (= x27 x151)) (= x87 x27)) (or (= x87 x155) (or (or (= x155 x73) (or (= x145 x155) (= x155 x77))) (= x151 x155)))))))) (and (and (and (and (or (or (= x151 x120) (or (= x73 x120) (or (= x120 x77) (= x145 x120)))) (= x120 x87)) (or (or (= x151 x132) (or (= x132 x73) (or (= x132 x77) (= x132 x145)))) (= x87 x132))) (or (= x1 x87) (or (= x1 x151) (or (or (= x1 x145) (= x77 x1)) (= x73 x1))))) (or (= x117 x87) (or (or (or (= x117 x145) (= x117 x77)) (= x73 x117)) (= x117 x151)))) (or (= x80 x87) (or (or (= x73 x80) (or (= x80 x77) (= x145 x80))) (= x151 x80))))) (and (and (and (or (or (or (= x73 x78) (or (= x145 x78) (= x77 x78))) (= x151 x78)) (= x87 x78)) (and (or (or (= x151 x105) (or (= x105 x73) (or (= x105 x77) (= x105 x145)))) (= x87 x105)) (or (or (= x151 x43) (or (or (= x43 x77) (= x145 x43)) (= x73 x43))) (= x87 x43)))) (or (= x101 x87) (or (= x151 x101) (or (= x101 x73) (or (= x145 x101) (= x77 x101)))))) (or (= x29 x87) (or (or (or (= x145 x29) (= x29 x77)) (= x29 x73)) (= x151 x29)))))))
(assert (not (and (and (= (x7 x87 x145) x73) (and (= (x7 x145 x145) x77) (= x87 (x7 x151 x145)))) (= (x7 x151 x151) x145))))
(assert (not (and (and (and (= (x7 x73 x77) x145) (= (x7 x77 x77) x151)) (= x87 (x7 x145 x77))) (= (x7 x73 x73) x77))))
(assert (not (and (and (= x77 (x7 x87 x145)) (and (= (x7 x151 x145) x87) (= (x7 x145 x145) x73))) (= x145 (x7 x151 x151)))))
(assert (not (and (= (x7 x145 x145) x151) (and (= (x7 x73 x151) x77) (and (= x87 (x7 x151 x151)) (= x73 (x7 x145 x151)))))))
(assert (or (and (not (= (x7 x87 x87) x87)) (and (and (and (not (= (x7 x145 x87) x145)) (not (= (x7 x77 x87) x77))) (not (= (x7 x73 x87) x73))) (not (= (x7 x151 x87) x151)))) (or (and (and (not (= x151 (x7 x151 x151))) (and (and (not (= x77 (x7 x77 x151))) (not (= x145 (x7 x145 x151)))) (not (= x73 (x7 x73 x151))))) (not (= (x7 x87 x151) x87))) (or (and (and (and (not (= (x7 x73 x73) x73)) (and (not (= (x7 x145 x73) x145)) (not (= (x7 x77 x73) x77)))) (not (= (x7 x151 x73) x151))) (not (= (x7 x87 x73) x87))) (or (and (and (not (= x151 (x7 x151 x145))) (and (not (= x73 (x7 x73 x145))) (and (not (= (x7 x145 x145) x145)) (not (= x77 (x7 x77 x145)))))) (not (= x87 (x7 x87 x145)))) (and (and (and (and (not (= x77 (x7 x77 x77))) (not (= x145 (x7 x145 x77)))) (not (= x73 (x7 x73 x77)))) (not (= (x7 x151 x77) x151))) (not (= x87 (x7 x87 x77)))))))))
(assert (not (and (and (and (= (x7 x145 x73) x151) (= (x7 x73 x73) x87)) (= (x7 x151 x73) x77)) (= (x7 x145 x145) x73))))
(assert (not (and (and (and (= (x7 x151 x77) x73) (= (x7 x77 x77) x87)) (= (x7 x73 x77) x145)) (= x77 (x7 x151 x151)))))
(assert (not (and (= (x7 x73 x73) x87) (and (and (= x145 (x7 x87 x87)) (= x151 (x7 x73 x87))) (= (x7 x151 x87) x77)))))
(assert (not (and (= x87 (x7 x145 x145)) (and (= x151 (x7 x73 x87)) (and (= (x7 x87 x87) x77) (= x73 (x7 x145 x87)))))))
(assert (not (and (and (and (= (x7 x73 x73) x151) (= (x7 x87 x73) x77)) (= x145 (x7 x77 x73))) (= x73 (x7 x87 x87)))))
(assert (not (and (and (= x73 (x7 x151 x87)) (and (= x151 (x7 x145 x87)) (= x77 (x7 x87 x87)))) (= (x7 x145 x145) x87))))
(assert (not (and (= (x7 x87 x87) x145) (and (= (x7 x77 x145) x73) (and (= x151 (x7 x145 x145)) (= x77 (x7 x87 x145)))))))
(assert (not (and (= (x7 x151 x151) x87) (and (and (= x145 (x7 x87 x87)) (= (x7 x151 x87) x73)) (= x77 (x7 x73 x87))))))
(assert (not (and (= x77 (x7 x151 x151)) (and (= x87 (x7 x145 x77)) (and (= x73 (x7 x77 x77)) (= (x7 x151 x77) x145))))))
(assert (not (and (= (x7 x73 x73) x77) (and (and (= (x7 x73 x77) x151) (= (x7 x77 x77) x87)) (= (x7 x151 x77) x145)))))
(assert (not (and (= x145 (x7 x73 x73)) (and (and (= (x7 x73 x145) x87) (= (x7 x145 x145) x77)) (= x151 (x7 x87 x145))))))
(assert (not (and (and (and (= x151 (x7 x77 x77)) (= x73 (x7 x145 x77))) (= x87 (x7 x73 x77))) (= x77 (x7 x145 x145)))))
(assert (not (and (and (and (= x73 (x7 x151 x145)) (= x77 (x7 x145 x145))) (= x87 (x7 x73 x145))) (= (x7 x151 x151) x145))))
(assert (not (and (= x151 (x7 x87 x87)) (and (= (x7 x145 x151) x77) (and (= (x7 x151 x151) x73) (= x145 (x7 x87 x151)))))))
(assert (not (and (= (x7 x87 x87) x73) (and (= (x7 x151 x73) x145) (and (= x77 (x7 x73 x73)) (= (x7 x87 x73) x151))))))
(assert (not (and (= (x7 x145 x145) x151) (and (and (= x77 (x7 x145 x151)) (= x87 (x7 x151 x151))) (= (x7 x77 x151) x73)))))
(assert (not (and (= (x7 x145 x145) x87) (and (and (= x77 (x7 x145 x87)) (= (x7 x87 x87) x73)) (= x151 (x7 x77 x87))))))
(assert (not (and (= (x7 x151 x151) x145) (and (and (= x77 (x7 x151 x145)) (= x87 (x7 x145 x145))) (= (x7 x77 x145) x73)))))
(assert (not (and (and (and (= x87 (x7 x151 x77)) (= (x7 x77 x77) x73)) (= x145 (x7 x87 x77))) (= x77 (x7 x151 x151)))))
(assert (not (and (= x145 (x7 x87 x87)) (and (and (= x73 (x7 x145 x145)) (= x151 (x7 x87 x145))) (= x77 (x7 x151 x145))))))
(assert (not (and (and (= x73 (x7 x151 x87)) (and (= x151 (x7 x77 x87)) (= (x7 x87 x87) x145))) (= x87 (x7 x77 x77)))))
(assert (not (and (= x151 (x7 x77 x77)) (and (= (x7 x73 x151) x87) (and (= (x7 x151 x151) x145) (= x73 (x7 x77 x151)))))))
(assert (not (and (= (x7 x73 x73) x151) (and (= (x7 x77 x151) x87) (and (= x77 (x7 x73 x151)) (= (x7 x151 x151) x145))))))
(assert (not (and (and (= x151 (x7 x77 x73)) (and (= (x7 x73 x73) x145) (= (x7 x87 x73) x77))) (= x73 (x7 x87 x87)))))
(assert (let ((x61 (x7 x145 x145)) (x120 (x7 x145 x151)) (x123 (x7 x73 x73)) (x80 (x7 x87 x151)) (x17 (x7 x87 x77)) (x91 (x7 x145 x77)) (x88 (x7 x87 x73)) (x79 (x7 x87 x145)) (x29 (x7 x87 x87)) (x57 (x7 x77 x77)) (x105 (x7 x77 x87)) (x43 (x7 x145 x87)) (x132 (x7 x77 x151)) (x101 (x7 x151 x87)) (x109 (x7 x151 x77)) (x33 (x7 x151 x73)) (x117 (x7 x151 x151)) (x27 (x7 x145 x73)) (x52 (x7 x151 x145)) (x41 (x7 x77 x145)) (x1 (x7 x73 x151)) (x155 (x7 x77 x73)) (x126 (x7 x73 x77)) (x78 (x7 x73 x87)) (x11 (x7 x73 x145))) (and (and (and (and (and (not (= x33 x88)) (and (and (and (not (= x27 x88)) (and (and (and (and (not (= x33 x155)) (and (not (= x27 x155)) (not (= x123 x155)))) (not (= x155 x88))) (not (= x27 x123))) (not (= x27 x33)))) (not (= x33 x123))) (not (= x88 x123)))) (and (and (and (and (and (and (not (= x61 x52)) (and (and (not (= x79 x41)) (and (and (not (= x61 x41)) (not (= x41 x11))) (not (= x41 x52)))) (not (= x11 x61)))) (not (= x79 x61))) (not (= x11 x52))) (not (= x79 x11))) (not (= x79 x52))) (and (not (= x109 x17)) (and (and (and (and (not (= x91 x109)) (and (not (= x91 x126)) (and (and (not (= x57 x109)) (and (not (= x126 x57)) (not (= x91 x57)))) (not (= x17 x57))))) (not (= x91 x17))) (not (= x109 x126))) (not (= x126 x17)))))) (and (and (and (and (not (= x120 x80)) (and (not (= x120 x117)) (and (and (not (= x80 x132)) (and (and (not (= x132 x120)) (not (= x1 x132))) (not (= x117 x132)))) (not (= x1 x120))))) (not (= x1 x117))) (not (= x80 x1))) (not (= x80 x117)))) (and (not (= x29 x101)) (and (not (= x29 x78)) (and (not (= x101 x78)) (and (not (= x43 x29)) (and (and (not (= x43 x78)) (and (not (= x29 x105)) (and (not (= x105 x101)) (and (not (= x78 x105)) (not (= x43 x105)))))) (not (= x101 x43)))))))) (and (and (and (and (and (not (= x117 x33)) (and (and (not (= x117 x52)) (and (not (= x33 x52)) (and (and (not (= x117 x109)) (and (not (= x109 x52)) (not (= x109 x33)))) (not (= x101 x109))))) (not (= x101 x52)))) (not (= x101 x33))) (not (= x101 x117))) (and (and (and (not (= x120 x43)) (and (not (= x43 x27)) (and (not (= x27 x120)) (and (not (= x61 x43)) (and (and (and (not (= x91 x43)) (and (and (not (= x27 x91)) (not (= x61 x91))) (not (= x120 x91)))) (not (= x27 x61))) (not (= x120 x61))))))) (and (not (= x105 x132)) (and (and (and (and (not (= x132 x41)) (and (and (not (= x57 x105)) (and (and (not (= x155 x57)) (not (= x41 x57))) (not (= x57 x132)))) (not (= x155 x41)))) (not (= x41 x105))) (not (= x132 x155))) (not (= x105 x155))))) (and (not (= x1 x78)) (and (not (= x78 x123)) (and (and (not (= x78 x11)) (and (and (not (= x11 x123)) (and (and (and (not (= x123 x126)) (not (= x126 x11))) (not (= x126 x1))) (not (= x78 x126)))) (not (= x1 x11)))) (not (= x1 x123))))))) (and (and (and (and (not (= x29 x79)) (and (not (= x79 x80)) (and (not (= x79 x88)) (and (and (and (not (= x79 x17)) (not (= x88 x17))) (not (= x17 x80))) (not (= x29 x17)))))) (not (= x88 x80))) (not (= x29 x88))) (not (= x29 x80)))))))
(assert (not (and (= x87 (x7 x73 x73)) (and (= (x7 x145 x87) x77) (and (= (x7 x87 x87) x151) (= x145 (x7 x73 x87)))))))
(assert (not (and (and (and (= (x7 x87 x145) x73) (= (x7 x145 x145) x77)) (= (x7 x73 x145) x151)) (= x145 (x7 x87 x87)))))
(assert (not (and (= x151 (x7 x145 x145)) (and (= (x7 x87 x151) x73) (and (= (x7 x145 x151) x87) (= x77 (x7 x151 x151)))))))
(assert (let ((x43 (x7 x145 x87)) (x103 (x7 x87 x145)) (x13 (x7 x87 x151)) (x102 (x7 x87 x87)) (x17 (x7 x77 x151)) (x41 (x7 x77 x87)) (x82 (x7 x73 x73)) (x52 (x7 x73 x77)) (x126 (x7 x77 x145)) (x80 (x7 x145 x73)) (x91 (x7 x77 x77)) (x105 (x7 x145 x151)) (x109 (x7 x77 x73)) (x79 (x7 x151 x77)) (x37 (x7 x151 x151)) (x116 (x7 x151 x87)) (x71 (x7 x151 x73)) (x84 (x7 x87 x73)) (x146 (x7 x73 x87)) (x11 (x7 x145 x77)) (x155 (x7 x87 x77)) (x70 (x7 x151 x145)) (x117 (x7 x145 x145)) (x128 (x7 x73 x151)) (x29 (x7 x73 x145))) (let ((x18 (= x151 x117)) (x21 (= x87 x128)) (x56 (= x151 x82)) (x60 (= x87 x126)) (x132 (= x126 x77)) (x113 (= x155 x87)) (x114 (= x43 x73)) (x130 (= x77 x80)) (x81 (= x52 x73)) (x49 (= x70 x77)) (x16 (= x43 x151)) (x24 (= x145 x102)) (x143 (= x77 x116)) (x136 (= x146 x73)) (x62 (= x79 x145)) (x36 (= x151 x80)) (x23 (= x151 x128)) (x150 (= x151 x84)) (x20 (= x87 x37)) (x127 (= x73 x116)) (x93 (= x145 x37)) (x118 (= x145 x82)) (x54 (= x87 x105)) (x138 (= x151 x146)) (x144 (= x80 x145)) (x48 (= x128 x145)) (x55 (= x145 x13)) (x156 (= x145 x43)) (x35 (= x105 x73)) (x101 (= x117 x145)) (x119 (= x17 x77)) (x137 (= x146 x77)) (x124 (= x73 x117)) (x4 (= x105 x151)) (x89 (= x70 x151)) (x94 (= x41 x151)) (x9 (= x29 x87)) (x66 (= x77 x71)) (x59 (= x109 x77)) (x95 (= x145 x84)) (x135 (= x128 x77)) (x53 (= x116 x145)) (x57 (= x77 x91)) (x149 (= x103 x145)) (x121 (= x116 x87)) (x25 (= x41 x145)) (x31 (= x77 x102)) (x108 (= x77 x52)) (x99 (= x151 x29)) (x97 (= x103 x87)) (x74 (= x80 x87)) (x6 (= x145 x146)) (x8 (= x73 x109)) (x154 (= x82 x87)) (x104 (= x73 x71)) (x5 (= x37 x73)) (x96 (= x151 x37)) (x88 (= x11 x77)) (x14 (= x151 x17)) (x19 (= x128 x73)) (x120 (= x117 x77)) (x45 (= x84 x77)) (x65 (= x80 x73)) (x76 (= x155 x145)) (x64 (= x29 x77)) (x152 (= x126 x73)) (x133 (= x77 x37)) (x111 (= x70 x73)) (x27 (= x91 x73)) (x106 (= x43 x87)) (x72 (= x109 x87)) (x46 (= x151 x102)) (x123 (= x151 x91)) (x63 (= x17 x73)) (x147 (= x77 x155)) (x86 (= x79 x151)) (x125 (= x73 x103)) (x115 (= x13 x77)) (x78 (= x145 x126)) (x141 (= x77 x105)) (x30 (= x70 x145)) (x85 (= x151 x71)) (x148 (= x73 x11)) (x110 (= x73 x79)) (x26 (= x103 x151)) (x139 (= x71 x87)) (x33 (= x87 x91)) (x90 (= x77 x103)) (x12 (= x87 x79)) (x134 (= x13 x73)) (x28 (= x87 x146)) (x38 (= x151 x155)) (x98 (= x145 x29)) (x32 (= x73 x41)) (x100 (= x52 x145)) (x69 (= x82 x77)) (x10 (= x41 x87)) (x92 (= x109 x145)) (x22 (= x52 x151)) (x61 (= x145 x91)) (x83 (= x43 x77)) (x68 (= x109 x151)) (x129 (= x87 x11)) (x34 (= x77 x41)) (x42 (= x82 x73)) (x39 (= x87 x70)) (x131 (= x145 x71)) (x75 (= x17 x145)) (x51 (= x13 x151)) (x142 (= x87 x102)) (x50 (= x87 x13)) (x44 (= x102 x73)) (x107 (= x151 x11)) (x157 (= x73 x155)) (x158 (= x73 x84)) (x3 (= x151 x116)) (x1 (= x145 x11)) (x2 (= x29 x73)) (x47 (= x117 x87)) (x15 (= x87 x84)) (x40 (= x52 x87)) (x140 (= x77 x79)) (x58 (= x17 x87)) (x153 (= x105 x145)) (x112 (= x126 x151))) (and (and (and (and (and (and (and (or (or (or x22 (or x107 x123)) x86) x38) (or (or (or x68 (or x112 x123)) x14) x94)) (and (and (or (or x63 (or (or x152 x27) x8)) x32) (or (or x110 (or (or x27 x148) x81)) x157)) (and (and (or x25 (or x75 (or (or x61 x78) x92))) (or (or (or (or x61 x1) x100) x62) x76)) (and (or (or x140 (or x108 (or x88 x57))) x147) (or (or x119 (or (or x132 x57) x59)) x34))))) (and (or (or (or x72 (or x33 x60)) x58) x10) (or (or x12 (or (or x129 x33) x40)) x113))) (and (and (or (or x54 (or x74 (or x47 x129))) x106) (or (or (or (or x60 x47) x9) x39) x97)) (and (and (and (or (or x111 (or (or x124 x152) x2)) x125) (or (or (or (or x124 x148) x65) x35) x114)) (and (and (or (or (or x64 (or x132 x120)) x49) x90) (or (or (or x130 (or x88 x120)) x141) x83)) (and (or x156 (or x153 (or x144 (or x101 x1)))) (or x149 (or (or x98 (or x101 x78)) x30))))) (and (or x16 (or x4 (or (or x107 x18) x36))) (or x26 (or (or (or x18 x112) x99) x89)))))) (and (and (or (or (or x154 (or x74 x72)) x139) x15) (or (or x21 (or (or x9 x40) x154)) x28)) (and (and (and (and (or (or x131 (or (or x92 x144) x118)) x95) (or (or (or x118 (or x100 x98)) x48) x6)) (and (or x45 (or (or (or x59 x130) x69) x66)) (or (or (or (or x64 x108) x69) x135) x137))) (and (or x136 (or (or (or x2 x81) x42) x19)) (or (or x104 (or (or x8 x65) x42)) x158))) (and (or (or (or (or x68 x36) x56) x85) x150) (or (or (or x56 (or x22 x99)) x23) x138))))) (and (and (or (or (or x139 (or x39 x12)) x20) x121) (or x50 (or x20 (or (or x58 x54) x21)))) (and (and (and (or x127 (or x5 (or x104 (or x111 x110)))) (or (or (or x19 (or x63 x35)) x5) x134)) (and (and (or x53 (or x93 (or (or x62 x30) x131))) (or (or x93 (or x48 (or x153 x75))) x55)) (and (or x143 (or x133 (or x66 (or x140 x49)))) (or x115 (or (or x135 (or x119 x141)) x133))))) (and (or (or (or x85 (or x89 x86)) x96) x3) (or x51 (or x96 (or x23 (or x14 x4)))))))) (and (and (or x142 (or (or (or x106 x10) x28) x121)) (or x142 (or x50 (or (or x113 x97) x15)))) (and (and (or (or (or (or x38 x26) x150) x51) x46) (or x46 (or x3 (or (or x94 x16) x138)))) (and (and (or x44 (or (or (or x114 x32) x136) x127)) (or (or (or (or x125 x157) x158) x134) x44)) (and (and (or x31 (or (or (or x34 x83) x137) x143)) (or x31 (or (or x45 (or x90 x147)) x115))) (and (or (or (or (or x156 x25) x6) x53) x24) (or (or x55 (or x95 (or x76 x149))) x24))))))))))
(assert (not (and (= x87 (x7 x77 x77)) (and (= x151 (x7 x145 x87)) (and (= (x7 x77 x87) x145) (= (x7 x87 x87) x73))))))
(assert (not (and (and (and (= (x7 x73 x77) x87) (= (x7 x77 x77) x151)) (= x145 (x7 x87 x77))) (= (x7 x73 x73) x77))))
(assert (not (and (= x151 (x7 x73 x73)) (and (and (= (x7 x151 x151) x87) (= x77 (x7 x73 x151))) (= x145 (x7 x77 x151))))))
(assert (not (and (= (x7 x73 x73) x151) (and (= x87 (x7 x145 x151)) (and (= x77 (x7 x151 x151)) (= x145 (x7 x73 x151)))))))
(assert (not (and (= (x7 x87 x87) x151) (and (= x73 (x7 x145 x151)) (and (= (x7 x151 x151) x77) (= (x7 x87 x151) x145))))))
(assert (not (and (and (and (= (x7 x151 x151) x73) (= (x7 x145 x151) x77)) (= x87 (x7 x77 x151))) (= x151 (x7 x145 x145)))))
(assert (not (and (= (x7 x151 x151) x87) (and (and (= (x7 x151 x87) x73) (= (x7 x87 x87) x77)) (= x145 (x7 x73 x87))))))
(assert (not (and (and (and (= x77 (x7 x151 x151)) (= (x7 x145 x151) x73)) (= x87 (x7 x73 x151))) (= (x7 x145 x145) x151))))
(assert (not (and (and (and (= x145 (x7 x73 x87)) (= (x7 x87 x87) x77)) (= (x7 x145 x87) x151)) (= (x7 x73 x73) x87))))
(assert (not (and (= (x7 x77 x77) x151) (and (and (= (x7 x77 x151) x87) (= (x7 x151 x151) x73)) (= x145 (x7 x87 x151))))))
(assert (not (and (and (and (= (x7 x87 x87) x77) (= x151 (x7 x73 x87))) (= (x7 x151 x87) x145)) (= (x7 x73 x73) x87))))
(assert (not (and (and (and (= x73 (x7 x77 x77)) (= (x7 x145 x77) x87)) (= (x7 x87 x77) x151)) (= (x7 x145 x145) x77))))
(assert (not (and (= (x7 x151 x151) x77) (and (and (= x87 (x7 x77 x77)) (= (x7 x151 x77) x145)) (= x73 (x7 x145 x77))))))
(assert (not (and (and (= x77 (x7 x145 x73)) (and (= x151 (x7 x73 x73)) (= x145 (x7 x87 x73)))) (= x73 (x7 x87 x87)))))
(assert (not (and (= (x7 x145 x145) x77) (and (= (x7 x73 x77) x151) (and (= x87 (x7 x77 x77)) (= x73 (x7 x145 x77)))))))
(assert (not (and (= (x7 x145 x145) x73) (and (and (= (x7 x145 x73) x87) (= (x7 x73 x73) x151)) (= x77 (x7 x87 x73))))))
(assert (not (and (= x145 (x7 x87 x87)) (and (and (= x73 (x7 x145 x145)) (= (x7 x87 x145) x77)) (= x151 (x7 x77 x145))))))
(assert (not (and (and (= x73 (x7 x87 x151)) (and (= (x7 x77 x151) x87) (= (x7 x151 x151) x145))) (= (x7 x77 x77) x151))))
(assert (not (and (= x77 (x7 x87 x87)) (and (= (x7 x151 x77) x145) (and (= x73 (x7 x77 x77)) (= x151 (x7 x87 x77)))))))
(assert (not (and (and (and (= x87 (x7 x145 x145)) (= (x7 x151 x145) x73)) (= (x7 x73 x145) x77)) (= x145 (x7 x151 x151)))))
(assert (let ((x57 (x7 x77 x77)) (x17 (x7 x87 x87)) (x91 (x7 x145 x145)) (x126 (x7 x73 x73)) (x109 (x7 x151 x151))) (and (and (or (= x17 x151) (or (or (or (= x151 x57) (= x151 x91)) (= x126 x151)) (= x151 x109))) (and (or (= x73 x17) (or (or (= x126 x73) (or (= x91 x73) (= x57 x73))) (= x109 x73))) (and (or (= x17 x145) (or (= x145 x109) (or (or (= x91 x145) (= x145 x57)) (= x126 x145)))) (or (or (or (or (= x77 x57) (= x91 x77)) (= x77 x126)) (= x77 x109)) (= x77 x17))))) (or (or (= x109 x87) (or (= x87 x126) (or (= x87 x91) (= x57 x87)))) (= x87 x17)))))
(assert (let ((x105 (x7 x73 x87)) (x155 (x7 x151 x77)) (x52 (x7 x73 x73)) (x101 (x7 x87 x151)) (x17 (x7 x77 x73)) (x123 (x7 x151 x145)) (x109 (x7 x145 x145)) (x120 (x7 x77 x87)) (x132 (x7 x151 x151)) (x27 (x7 x145 x151)) (x61 (x7 x145 x73)) (x43 (x7 x87 x73)) (x126 (x7 x145 x77)) (x57 (x7 x77 x77)) (x79 (x7 x77 x151)) (x80 (x7 x87 x145)) (x88 (x7 x151 x73)) (x117 (x7 x145 x87)) (x11 (x7 x73 x145)) (x91 (x7 x77 x145)) (x29 (x7 x87 x87)) (x33 (x7 x73 x151)) (x41 (x7 x73 x77)) (x78 (x7 x151 x87)) (x1 (x7 x87 x77))) (or (or (or (or (not (= x105 x43)) (or (not (= x80 x117)) (not (= x1 x120)))) (not (= x78 x101))) (not (= x29 x29))) (or (or (or (or (not (= x88 x33)) (or (not (= x52 x52)) (or (not (= x41 x17)) (not (= x61 x11))))) (not (= x105 x43))) (or (or (not (= x80 x117)) (or (or (not (= x61 x11)) (or (not (= x126 x91)) (not (= x109 x109)))) (not (= x123 x27)))) (or (not (= x1 x120)) (or (or (not (= x41 x17)) (or (not (= x57 x57)) (not (= x91 x126)))) (not (= x155 x79)))))) (or (or (or (not (= x88 x33)) (or (not (= x123 x27)) (not (= x79 x155)))) (not (= x132 x132))) (not (= x78 x101)))))))
(assert (not (and (and (= (x7 x77 x145) x87) (and (= (x7 x145 x145) x151) (= x77 (x7 x73 x145)))) (= x145 (x7 x73 x73)))))
(assert (not (and (and (= x151 (x7 x73 x87)) (and (= (x7 x77 x87) x73) (= (x7 x87 x87) x145))) (= x87 (x7 x77 x77)))))
(assert (not (and (= (x7 x151 x151) x87) (and (and (= (x7 x87 x87) x73) (= x145 (x7 x151 x87))) (= (x7 x145 x87) x77)))))
(assert (not (and (= x87 (x7 x73 x73)) (and (= x145 (x7 x77 x87)) (and (= (x7 x73 x87) x77) (= (x7 x87 x87) x151))))))
(assert (not (and (= (x7 x77 x77) x73) (and (and (= x145 (x7 x73 x73)) (= x151 (x7 x77 x73))) (= (x7 x151 x73) x87)))))
(assert (not (and (and (= (x7 x151 x145) x73) (and (= (x7 x145 x145) x77) (= (x7 x87 x145) x151))) (= (x7 x87 x87) x145))))
(assert (not (and (= x145 (x7 x73 x73)) (and (= x151 (x7 x77 x145)) (and (= (x7 x73 x145) x77) (= (x7 x145 x145) x87))))))
(assert (not (and (= (x7 x77 x77) x145) (and (and (= (x7 x145 x145) x87) (= x73 (x7 x77 x145))) (= x151 (x7 x73 x145))))))
(assert (not (and (= (x7 x151 x151) x73) (and (and (= x77 (x7 x73 x73)) (= (x7 x151 x73) x87)) (= (x7 x87 x73) x145)))))
(assert (not (and (and (= (x7 x87 x151) x77) (and (= (x7 x145 x151) x87) (= (x7 x151 x151) x73))) (= x151 (x7 x145 x145)))))
(assert (not (and (= (x7 x73 x73) x77) (and (= (x7 x145 x77) x151) (and (= (x7 x77 x77) x87) (= x145 (x7 x73 x77)))))))
(assert (not (and (= (x7 x73 x73) x145) (and (= (x7 x151 x145) x77) (and (= (x7 x145 x145) x87) (= (x7 x73 x145) x151))))))
(assert (not (and (= x73 (x7 x145 x145)) (and (and (= (x7 x145 x73) x87) (= (x7 x73 x73) x77)) (= x151 (x7 x87 x73))))))
(assert (not (and (= (x7 x87 x87) x145) (and (= (x7 x73 x145) x77) (and (= x151 (x7 x145 x145)) (= (x7 x87 x145) x73))))))
(assert (not (and (= x73 (x7 x151 x151)) (and (and (= (x7 x73 x73) x87) (= (x7 x151 x73) x145)) (= (x7 x145 x73) x77)))))
(assert (not (and (and (= x145 (x7 x77 x151)) (and (= x73 (x7 x151 x151)) (= (x7 x87 x151) x77))) (= (x7 x87 x87) x151))))
(assert (not (and (and (and (= x151 (x7 x73 x73)) (= (x7 x77 x73) x87)) (= (x7 x87 x73) x145)) (= x73 (x7 x77 x77)))))
(assert (not (and (= x87 (x7 x151 x151)) (and (and (= (x7 x87 x87) x73) (= (x7 x151 x87) x77)) (= (x7 x77 x87) x145)))))
(assert (not (and (= x151 (x7 x87 x87)) (and (and (= (x7 x87 x151) x73) (= (x7 x151 x151) x77)) (= (x7 x73 x151) x145)))))
(assert (not (and (and (= x151 (x7 x87 x73)) (and (= (x7 x77 x73) x87) (= x145 (x7 x73 x73)))) (= x73 (x7 x77 x77)))))
(assert (not (and (= (x7 x73 x73) x151) (and (= x77 (x7 x87 x151)) (and (= x145 (x7 x151 x151)) (= (x7 x73 x151) x87))))))
(assert (not (and (and (= (x7 x145 x73) x151) (and (= x145 (x7 x87 x73)) (= (x7 x73 x73) x77))) (= x73 (x7 x87 x87)))))
(check-sat)
(exit)
